NAME: tsp225
TYPE: MST
DIMENSION: 225
MST_SECTION
1 3
1 200
2 47
2 59
2 207
3 198
4 5
4 197
4 198
5 6
6 7
6 43
7 8
8 9
9 10
11 12
12 13
13 14
13 23
14 15
15 16
15 22
16 17
17 20
18 19
19 203
20 21
20 203
23 24
24 208
25 26
25 208
26 34
27 188
27 189
28 29
28 204
29 30
30 35
30 77
30 202
31 32
31 206
33 34
33 35
36 37
36 208
37 38
38 39
39 40
40 41
42 43
43 44
44 46
45 48
45 218
46 194
47 225
49 51
49 207
50 51
51 57
52 53
52 55
53 54
55 56
56 57
58 59
58 61
60 61
61 62
62 63
63 64
63 66
64 112
65 66
66 67
67 68
68 69
69 70
70 71
71 72
72 73
73 74
74 75
75 76
76 216
77 78
77 217
78 79
78 97
80 81
80 95
82 83
83 84
84 85
84 210
85 86
86 131
87 90
87 210
88 89
89 90
90 91
91 92
92 93
93 94
94 209
94 221
95 96
95 209
96 97
96 99
98 99
99 100
100 101
101 102
102 103
103 104
104 220
105 106
105 220
106 107
107 108
108 109
110 111
111 112
112 113
113 114
114 115
115 118
115 223
116 117
116 223
117 187
118 119
119 185
119 186
120 175
120 184
120 185
121 122
121 175
122 123
122 171
123 124
124 125
126 127
127 128
128 129
129 132
129 222
130 211
130 222
131 211
133 190
133 199
134 135
134 215
135 183
136 137
136 183
137 138
137 163
138 139
139 140
140 141
141 142
142 201
143 144
143 201
144 145
144 157
146 147
147 148
148 149
148 153
149 150
149 152
150 151
150 212
153 154
154 155
155 156
156 157
158 163
158 213
159 160
160 161
161 162
162 163
164 215
165 166
166 167
167 214
168 169
168 212
169 170
170 171
171 172
172 173
173 181
173 182
174 180
174 181
176 177
176 179
177 178
179 180
189 205
189 225
190 225
191 192
191 199
192 196
193 196
193 218
194 195
194 218
199 224
202 206
212 214
216 219
217 219
EOF
